c "331236.clq"
p edge 100 1344
e 1 17
e 1 18
e 1 19
e 1 20
e 1 21
e 1 24
e 1 26
e 1 27
e 1 28
e 1 31
e 1 33
e 1 34
e 1 35
e 1 37
e 1 42
e 1 44
e 1 48
e 1 49
e 1 59
e 1 60
e 1 71
e 1 75
e 2 17
e 2 18
e 2 19
e 2 21
e 2 22
e 2 23
e 2 24
e 2 25
e 2 26
e 2 27
e 2 29
e 2 30
e 2 34
e 2 35
e 2 36
e 2 39
e 2 43
e 2 46
e 2 48
e 2 49
e 2 51
e 2 55
e 2 57
e 2 62
e 2 63
e 2 64
e 2 65
e 2 66
e 2 69
e 2 70
e 2 72
e 2 78
e 2 79
e 2 81
e 2 84
e 2 87
e 2 91
e 2 94
e 2 99
e 3 17
e 3 18
e 3 20
e 3 22
e 3 23
e 3 26
e 3 28
e 3 42
e 3 45
e 3 46
e 3 47
e 3 54
e 3 55
e 3 61
e 3 64
e 3 69
e 3 79
e 3 88
e 3 93
e 3 95
e 4 17
e 4 18
e 4 19
e 4 20
e 4 21
e 4 22
e 4 24
e 4 25
e 4 29
e 4 31
e 4 33
e 4 41
e 4 48
e 4 51
e 4 53
e 4 54
e 4 57
e 4 81
e 4 89
e 4 90
e 4 91
e 4 100
e 5 17
e 6 17
e 6 18
e 6 19
e 6 20
e 6 22
e 6 28
e 6 29
e 6 30
e 6 31
e 6 33
e 6 41
e 6 54
e 6 55
e 6 57
e 6 77
e 6 85
e 6 95
e 7 17
e 7 18
e 7 19
e 7 21
e 7 22
e 7 23
e 7 25
e 7 33
e 7 36
e 7 37
e 7 41
e 7 42
e 7 44
e 7 45
e 7 55
e 7 56
e 7 61
e 7 67
e 7 85
e 7 92
e 7 93
e 7 96
e 7 98
e 8 17
e 8 18
e 8 19
e 8 20
e 8 21
e 8 23
e 8 25
e 8 27
e 8 28
e 8 32
e 8 38
e 8 50
e 8 51
e 8 57
e 8 61
e 8 66
e 8 69
e 8 71
e 8 72
e 8 83
e 8 84
e 8 88
e 8 91
e 9 17
e 9 18
e 9 19
e 9 20
e 9 21
e 9 22
e 9 23
e 9 24
e 9 25
e 9 27
e 9 32
e 9 34
e 9 35
e 9 36
e 9 39
e 9 43
e 9 48
e 9 49
e 9 54
e 9 59
e 9 61
e 9 72
e 9 81
e 9 84
e 9 87
e 9 96
e 10 17
e 10 18
e 10 19
e 10 20
e 10 21
e 10 22
e 10 23
e 10 24
e 10 27
e 10 31
e 10 33
e 10 34
e 10 35
e 10 38
e 10 39
e 10 41
e 10 44
e 10 50
e 10 54
e 10 55
e 10 57
e 10 58
e 10 61
e 10 71
e 10 75
e 10 80
e 10 98
e 11 17
e 11 18
e 11 19
e 11 20
e 11 21
e 11 22
e 11 23
e 11 24
e 11 25
e 11 26
e 11 30
e 11 31
e 11 33
e 11 34
e 11 37
e 11 38
e 11 41
e 11 48
e 11 51
e 11 56
e 11 58
e 11 61
e 11 65
e 11 71
e 11 72
e 11 73
e 11 81
e 11 85
e 11 86
e 11 87
e 11 88
e 11 100
e 12 17
e 12 18
e 12 19
e 12 20
e 12 21
e 12 22
e 12 23
e 12 25
e 12 27
e 12 31
e 12 33
e 12 38
e 12 39
e 12 40
e 12 41
e 12 42
e 12 45
e 12 50
e 12 52
e 12 55
e 12 59
e 12 60
e 12 61
e 12 67
e 12 70
e 12 75
e 12 80
e 12 82
e 12 86
e 12 91
e 12 94
e 12 95
e 12 98
e 12 99
e 13 17
e 13 18
e 13 19
e 13 20
e 13 25
e 13 26
e 13 27
e 13 28
e 13 29
e 13 30
e 13 38
e 13 40
e 13 42
e 13 48
e 13 54
e 13 57
e 13 63
e 13 65
e 13 66
e 13 73
e 13 74
e 13 76
e 13 77
e 13 90
e 13 93
e 13 98
e 14 17
e 14 18
e 14 19
e 14 20
e 14 21
e 14 22
e 14 24
e 14 25
e 14 26
e 14 28
e 14 29
e 14 30
e 14 31
e 14 32
e 14 33
e 14 34
e 14 36
e 14 38
e 14 39
e 14 40
e 14 42
e 14 44
e 14 45
e 14 47
e 14 49
e 14 60
e 14 62
e 14 64
e 14 65
e 14 67
e 14 68
e 14 69
e 14 70
e 14 71
e 14 75
e 14 76
e 14 89
e 14 93
e 14 96
e 14 100
e 15 17
e 15 18
e 15 19
e 15 20
e 15 21
e 15 22
e 15 23
e 15 24
e 15 28
e 15 29
e 15 30
e 15 33
e 15 35
e 15 37
e 15 38
e 15 47
e 15 48
e 15 52
e 15 66
e 15 68
e 15 70
e 15 75
e 15 79
e 16 17
e 16 18
e 16 19
e 16 20
e 16 21
e 16 23
e 16 24
e 16 26
e 16 31
e 16 32
e 16 33
e 16 36
e 16 39
e 16 42
e 16 44
e 16 46
e 16 51
e 16 58
e 16 60
e 16 62
e 16 76
e 16 80
e 16 84
e 16 86
e 16 88
e 17 18
e 17 19
e 17 20
e 17 21
e 17 22
e 17 23
e 17 24
e 17 25
e 17 26
e 17 27
e 17 28
e 17 29
e 17 30
e 17 31
e 17 32
e 17 33
e 17 34
e 17 35
e 17 38
e 17 40
e 17 43
e 17 46
e 17 48
e 17 49
e 17 50
e 17 52
e 17 56
e 17 57
e 17 58
e 17 59
e 17 62
e 17 64
e 17 70
e 17 71
e 17 73
e 17 74
e 17 76
e 17 78
e 17 81
e 17 83
e 17 84
e 17 87
e 17 88
e 17 89
e 17 90
e 17 93
e 17 97
e 17 98
e 18 19
e 18 20
e 18 21
e 18 22
e 18 23
e 18 24
e 18 25
e 18 26
e 18 27
e 18 28
e 18 29
e 18 35
e 18 36
e 18 37
e 18 38
e 18 39
e 18 40
e 18 41
e 18 42
e 18 44
e 18 45
e 18 47
e 18 48
e 18 49
e 18 50
e 18 53
e 18 54
e 18 56
e 18 58
e 18 62
e 18 65
e 18 67
e 18 68
e 18 71
e 18 72
e 18 73
e 18 76
e 18 79
e 18 85
e 18 87
e 18 88
e 18 90
e 18 92
e 18 97
e 18 99
e 18 100
e 19 20
e 19 21
e 19 22
e 19 23
e 19 24
e 19 26
e 19 28
e 19 29
e 19 30
e 19 31
e 19 32
e 19 34
e 19 35
e 19 36
e 19 37
e 19 39
e 19 43
e 19 44
e 19 49
e 19 52
e 19 57
e 19 58
e 19 59
e 19 60
e 19 63
e 19 64
e 19 65
e 19 73
e 19 75
e 19 76
e 19 82
e 19 84
e 19 88
e 19 91
e 19 92
e 19 93
e 19 96
e 19 97
e 19 99
e 19 100
e 20 21
e 20 22
e 20 23
e 20 24
e 20 25
e 20 26
e 20 27
e 20 28
e 20 29
e 20 31
e 20 33
e 20 35
e 20 36
e 20 37
e 20 38
e 20 41
e 20 45
e 20 46
e 20 47
e 20 48
e 20 49
e 20 50
e 20 51
e 20 53
e 20 54
e 20 56
e 20 57
e 20 60
e 20 62
e 20 64
e 20 65
e 20 70
e 20 71
e 20 74
e 20 77
e 20 79
e 20 82
e 20 83
e 20 88
e 20 92
e 20 94
e 20 95
e 21 22
e 21 23
e 21 24
e 21 25
e 21 26
e 21 27
e 21 28
e 21 29
e 21 30
e 21 32
e 21 34
e 21 36
e 21 38
e 21 41
e 21 42
e 21 44
e 21 46
e 21 47
e 21 50
e 21 54
e 21 58
e 21 61
e 21 62
e 21 63
e 21 64
e 21 67
e 21 68
e 21 69
e 21 72
e 21 73
e 21 78
e 21 81
e 21 94
e 21 95
e 21 96
e 21 97
e 21 100
e 22 23
e 22 24
e 22 25
e 22 26
e 22 27
e 22 28
e 22 30
e 22 31
e 22 32
e 22 33
e 22 34
e 22 37
e 22 44
e 22 47
e 22 50
e 22 53
e 22 55
e 22 57
e 22 64
e 22 68
e 22 69
e 22 74
e 22 75
e 22 76
e 22 77
e 22 78
e 22 79
e 22 80
e 22 81
e 22 85
e 22 86
e 22 87
e 22 91
e 22 94
e 22 99
e 23 24
e 23 25
e 23 26
e 23 27
e 23 28
e 23 29
e 23 30
e 23 32
e 23 33
e 23 34
e 23 37
e 23 39
e 23 40
e 23 43
e 23 48
e 23 50
e 23 52
e 23 55
e 23 58
e 23 63
e 23 64
e 23 66
e 23 70
e 23 71
e 23 72
e 23 74
e 23 81
e 23 84
e 23 85
e 23 87
e 23 89
e 23 98
e 24 25
e 24 26
e 24 27
e 24 29
e 24 30
e 24 31
e 24 32
e 24 36
e 24 37
e 24 39
e 24 41
e 24 42
e 24 43
e 24 44
e 24 45
e 24 46
e 24 47
e 24 49
e 24 51
e 24 53
e 24 54
e 24 55
e 24 60
e 24 62
e 24 65
e 24 67
e 24 73
e 24 74
e 24 75
e 24 76
e 24 80
e 24 85
e 24 87
e 24 88
e 24 92
e 24 95
e 24 97
e 25 26
e 25 27
e 25 28
e 25 29
e 25 30
e 25 32
e 25 34
e 25 35
e 25 36
e 25 38
e 25 40
e 25 41
e 25 42
e 25 43
e 25 45
e 25 46
e 25 49
e 25 53
e 25 59
e 25 63
e 25 64
e 25 65
e 25 68
e 25 69
e 25 71
e 25 73
e 25 77
e 25 78
e 25 79
e 25 83
e 25 86
e 25 90
e 25 91
e 25 92
e 25 94
e 25 95
e 25 96
e 25 99
e 25 100
e 26 27
e 26 28
e 26 30
e 26 31
e 26 34
e 26 35
e 26 36
e 26 37
e 26 38
e 26 39
e 26 40
e 26 41
e 26 42
e 26 43
e 26 46
e 26 47
e 26 50
e 26 51
e 26 53
e 26 54
e 26 55
e 26 56
e 26 57
e 26 60
e 26 61
e 26 62
e 26 64
e 26 65
e 26 67
e 26 68
e 26 69
e 26 71
e 26 75
e 26 77
e 26 79
e 26 82
e 26 83
e 26 85
e 26 86
e 26 90
e 26 91
e 26 94
e 26 97
e 27 29
e 27 30
e 27 31
e 27 32
e 27 33
e 27 35
e 27 36
e 27 37
e 27 39
e 27 40
e 27 42
e 27 43
e 27 45
e 27 46
e 27 51
e 27 52
e 27 53
e 27 58
e 27 59
e 27 60
e 27 63
e 27 67
e 27 68
e 27 69
e 27 74
e 27 80
e 27 82
e 27 88
e 27 94
e 28 29
e 28 30
e 28 31
e 28 32
e 28 34
e 28 35
e 28 40
e 28 41
e 28 43
e 28 44
e 28 45
e 28 47
e 28 49
e 28 52
e 28 53
e 28 55
e 28 59
e 28 77
e 28 83
e 28 85
e 28 89
e 28 98
e 29 32
e 29 37
e 29 41
e 29 44
e 29 45
e 29 49
e 29 51
e 29 52
e 29 56
e 29 57
e 29 60
e 29 61
e 29 62
e 29 69
e 29 72
e 29 73
e 29 78
e 29 79
e 29 83
e 29 84
e 29 90
e 29 92
e 29 94
e 30 32
e 30 34
e 30 35
e 30 36
e 30 38
e 30 39
e 30 40
e 30 43
e 30 44
e 30 45
e 30 47
e 30 50
e 30 53
e 30 55
e 30 57
e 30 65
e 30 68
e 30 72
e 30 74
e 30 78
e 30 79
e 30 81
e 30 82
e 30 84
e 30 87
e 30 90
e 30 97
e 30 100
e 31 32
e 31 36
e 31 38
e 31 42
e 31 43
e 31 45
e 31 47
e 31 53
e 31 54
e 31 56
e 31 57
e 31 66
e 31 67
e 31 69
e 31 70
e 31 75
e 31 79
e 31 85
e 31 100
e 32 33
e 32 34
e 32 35
e 32 38
e 32 40
e 32 43
e 32 51
e 32 55
e 32 58
e 32 63
e 32 67
e 32 73
e 32 84
e 32 85
e 32 87
e 32 94
e 32 100
e 33 35
e 33 36
e 33 37
e 33 46
e 33 50
e 33 51
e 33 53
e 33 59
e 33 62
e 33 73
e 33 80
e 33 83
e 33 86
e 33 87
e 33 88
e 33 97
e 34 37
e 34 40
e 34 43
e 34 44
e 34 45
e 34 46
e 34 52
e 34 56
e 34 57
e 34 58
e 34 60
e 34 66
e 34 68
e 34 70
e 34 76
e 34 82
e 34 83
e 34 84
e 34 86
e 34 90
e 34 96
e 35 37
e 35 39
e 35 43
e 35 45
e 35 47
e 35 48
e 35 49
e 35 69
e 35 81
e 35 90
e 35 99
e 35 100
e 36 39
e 36 40
e 36 42
e 36 46
e 36 47
e 36 49
e 36 52
e 36 55
e 36 56
e 36 58
e 36 61
e 36 66
e 36 72
e 36 75
e 36 76
e 36 77
e 36 81
e 36 83
e 36 86
e 36 89
e 36 92
e 36 97
e 36 98
e 37 39
e 37 40
e 37 43
e 37 44
e 37 52
e 37 53
e 37 55
e 37 56
e 37 58
e 37 60
e 37 67
e 37 73
e 37 74
e 37 76
e 37 78
e 37 86
e 37 91
e 37 98
e 38 41
e 38 46
e 38 50
e 38 59
e 38 63
e 38 67
e 38 77
e 38 82
e 38 84
e 38 95
e 39 40
e 39 44
e 39 51
e 39 52
e 39 58
e 39 73
e 39 74
e 39 88
e 39 89
e 39 94
e 39 95
e 40 41
e 40 48
e 40 49
e 40 50
e 40 64
e 40 68
e 40 70
e 40 71
e 40 72
e 40 75
e 40 77
e 40 89
e 40 92
e 40 93
e 41 42
e 41 48
e 41 57
e 41 70
e 41 72
e 41 82
e 41 91
e 41 95
e 41 96
e 41 97
e 42 56
e 42 60
e 42 62
e 42 69
e 42 79
e 43 47
e 43 53
e 43 54
e 43 55
e 43 59
e 43 63
e 43 66
e 44 45
e 44 46
e 44 48
e 44 50
e 44 52
e 44 61
e 44 67
e 44 70
e 44 73
e 44 74
e 44 75
e 44 78
e 44 80
e 44 84
e 44 87
e 44 88
e 44 94
e 44 96
e 45 46
e 45 48
e 45 51
e 45 54
e 45 56
e 45 60
e 45 65
e 45 67
e 45 73
e 45 74
e 45 75
e 45 78
e 45 80
e 45 84
e 45 85
e 46 47
e 46 49
e 46 50
e 46 52
e 46 53
e 46 56
e 46 59
e 46 61
e 46 62
e 46 64
e 46 65
e 46 70
e 46 77
e 46 80
e 46 98
e 47 51
e 47 52
e 47 53
e 47 86
e 47 91
e 47 98
e 48 51
e 48 56
e 48 70
e 48 71
e 48 74
e 48 91
e 49 52
e 49 62
e 49 63
e 49 68
e 49 77
e 49 78
e 49 80
e 49 81
e 49 82
e 49 92
e 49 96
e 49 97
e 50 59
e 50 62
e 50 63
e 50 71
e 50 77
e 50 85
e 50 90
e 51 59
e 51 66
e 51 67
e 51 68
e 51 80
e 51 81
e 51 90
e 51 93
e 52 54
e 52 56
e 52 61
e 52 63
e 52 89
e 52 91
e 52 98
e 53 54
e 53 58
e 53 65
e 53 77
e 53 79
e 54 60
e 54 63
e 54 75
e 54 77
e 54 83
e 54 89
e 54 100
e 55 58
e 55 69
e 55 70
e 55 86
e 56 59
e 56 62
e 56 65
e 56 66
e 56 77
e 56 86
e 56 99
e 56 100
e 57 59
e 57 63
e 57 64
e 57 68
e 57 70
e 58 60
e 58 80
e 58 87
e 58 93
e 58 99
e 58 100
e 59 61
e 59 64
e 59 65
e 59 74
e 59 81
e 59 82
e 59 89
e 59 97
e 60 61
e 60 66
e 60 71
e 60 76
e 60 78
e 60 82
e 60 85
e 60 92
e 60 99
e 61 64
e 61 66
e 61 72
e 61 83
e 61 85
e 62 63
e 62 66
e 62 69
e 62 72
e 62 73
e 62 74
e 62 78
e 62 79
e 62 81
e 62 89
e 62 93
e 62 95
e 62 99
e 63 78
e 63 87
e 63 90
e 63 93
e 64 66
e 64 68
e 64 71
e 64 80
e 64 86
e 64 88
e 64 92
e 65 66
e 65 67
e 65 68
e 65 76
e 65 82
e 65 85
e 65 86
e 65 92
e 65 94
e 65 100
e 66 72
e 66 76
e 66 82
e 66 96
e 67 84
e 67 90
e 67 93
e 68 69
e 68 74
e 68 79
e 68 80
e 68 84
e 68 95
e 69 72
e 69 75
e 69 91
e 69 100
e 70 78
e 70 82
e 71 80
e 72 76
e 72 88
e 72 98
e 73 76
e 73 79
e 73 86
e 74 78
e 74 89
e 74 94
e 75 83
e 75 92
e 76 81
e 76 87
e 76 89
e 76 93
e 76 94
e 77 95
e 78 83
e 78 92
e 78 96
e 79 82
e 79 83
e 79 89
e 79 96
e 79 99
e 80 83
e 80 90
e 80 93
e 81 95
e 82 88
e 83 91
e 83 95
e 84 97
e 85 91
e 85 98
e 86 87
e 87 96
e 88 89
e 88 90
e 88 92
e 88 99
e 89 95
e 89 98
e 90 94
e 90 97
e 91 93
e 91 97
e 91 98
e 92 93
e 92 96
e 92 97
e 93 96
e 93 99
e 95 99
e 97 99
